sing20171027.12
TTAA 77121 48698
99007 27831 06004 00081 26631 03011 92769 22421 27509
85502 19258 26508 70148 09843 27012 50587 04350 22008
40759 15319 16007 30971 29719 07007 25098 39935 04011
20246 52557 07514 15425 68742 09535 10661 79945 30012
88999
77999=
TTCC 77125 48698
70864 74363 25518 50064 67373 29519
88926 82342 35019
77999=
TTDD 7712/ 48698
11926 82342 22862 82748 33773 73963 44738 75562 55505
67572 66484 66773 77392 67173
21212 11876 01025 22853 03019 33815 10510 44803 17507
55783 24010 66688 25516 77668 28013 88629 27526 99533
27520 11476 31017 22456 28516 33414 29512 44392 35508=
